35
1 0 37
2 0 33
2 1 28
3 0 20
3 1 47
3 2 1
4 0 48
4 1 36
4 2 2
4 3 34
5 0 10
5 1 31
5 2 35
5 3 24
5 4 30
6 0 37
6 1 45
6 2 27
6 3 33
6 4 31
6 5 25
7 0 3
7 1 50
7 2 6
7 3 9
7 4 9
7 5 5
7 6 14
8 0 13
8 1 2
8 2 49
8 3 44
8 4 22
8 5 7
8 6 26
8 7 38
9 0 29
9 1 34
9 2 6
9 3 3
9 4 7
9 5 27
9 6 48
9 7 37
9 8 34
10 0 46
10 1 48
10 2 45
10 3 40
10 4 1
10 5 15
10 6 6
10 7 17
10 8 4
10 9 2
11 0 31
11 1 29
11 2 42
11 3 10
11 4 37
11 5 46
11 6 5
11 7 20
11 8 29
11 9 9
11 10 48
12 0 41
12 1 21
12 2 30
12 3 2
12 4 5
12 5 8
12 6 4
12 7 26
12 8 30
12 9 13
12 10 17
12 11 6
13 0 48
13 1 39
13 2 45
13 3 4
13 4 41
13 5 13
13 6 10
13 7 44
13 8 22
13 9 41
13 10 14
13 11 14
13 12 12
14 0 42
14 1 28
14 2 45
14 3 40
14 4 30
14 5 47
14 6 18
14 7 26
14 8 6
14 9 18
14 10 37
14 11 14
14 12 10
14 13 3
15 0 2
15 1 34
15 2 47
15 3 27
15 4 23
15 5 31
15 6 29
15 7 47
15 8 14
15 9 20
15 10 23
15 11 18
15 12 8
15 13 29
15 14 13
16 0 3
16 1 17
16 2 16
16 3 40
16 4 44
16 5 11
16 6 41
16 7 18
16 8 13
16 9 42
16 10 10
16 11 1
16 12 25
16 13 36
16 14 41
16 15 22
17 0 21
17 1 48
17 2 5
17 3 16
17 4 20
17 5 15
17 6 2
17 7 19
17 8 16
17 9 38
17 10 14
17 11 23
17 12 15
17 13 11
17 14 9
17 15 10
17 16 42
18 0 33
18 1 18
18 2 20
18 3 47
18 4 7
18 5 40
18 6 50
18 7 19
18 8 45
18 9 3
18 10 13
18 11 48
18 12 41
18 13 40
18 14 32
18 15 38
18 16 16
18 17 6
19 0 19
19 1 23
19 2 26
19 3 26
19 4 38
19 5 12
19 6 50
19 7 46
19 8 39
19 9 50
19 10 31
19 11 23
19 12 20
19 13 46
19 14 14
19 15 16
19 16 38
19 17 15
19 18 30
20 0 38
20 1 49
20 2 24
20 3 32
20 4 6
20 5 35
20 6 13
20 7 21
20 8 18
20 9 46
20 10 5
20 11 45
20 12 32
20 13 11
20 14 41
20 15 16
20 16 35
20 17 26
20 18 41
20 19 20
21 0 8
21 1 25
21 2 3
21 3 39
21 4 14
21 5 36
21 6 5
21 7 20
21 8 16
21 9 43
21 10 8
21 11 5
21 12 39
21 13 42
21 14 37
21 15 21
21 16 16
21 17 26
21 18 31
21 19 9
21 20 44
22 0 13
22 1 2
22 2 47
22 3 15
22 4 34
22 5 16
22 6 36
22 7 38
22 8 14
22 9 18
22 10 49
22 11 19
22 12 43
22 13 40
22 14 35
22 15 16
22 16 36
22 17 42
22 18 48
22 19 39
22 20 16
22 21 25
23 0 21
23 1 46
23 2 36
23 3 28
23 4 27
23 5 38
23 6 46
23 7 3
23 8 32
23 9 5
23 10 14
23 11 47
23 12 38
23 13 33
23 14 2
23 15 33
23 16 17
23 17 27
23 18 9
23 19 20
23 20 49
23 21 33
23 22 46
24 0 26
24 1 31
24 2 9
24 3 22
24 4 20
24 5 17
24 6 32
24 7 50
24 8 15
24 9 9
24 10 29
24 11 6
24 12 34
24 13 46
24 14 39
24 15 39
24 16 31
24 17 43
24 18 16
24 19 41
24 20 1
24 21 22
24 22 15
24 23 33
25 0 30
25 1 50
25 2 36
25 3 25
25 4 46
25 5 30
25 6 47
25 7 13
25 8 29
25 9 32
25 10 32
25 11 48
25 12 1
25 13 49
25 14 25
25 15 32
25 16 32
25 17 26
25 18 27
25 19 26
25 20 20
25 21 34
25 22 9
25 23 13
25 24 25
26 0 6
26 1 27
26 2 30
26 3 30
26 4 24
26 5 3
26 6 30
26 7 4
26 8 18
26 9 49
26 10 16
26 11 27
26 12 30
26 13 6
26 14 27
26 15 26
26 16 18
26 17 36
26 18 3
26 19 4
26 20 3
26 21 34
26 22 28
26 23 44
26 24 40
26 25 5
27 0 3
27 1 30
27 2 43
27 3 16
27 4 25
27 5 10
27 6 27
27 7 30
27 8 46
27 9 7
27 10 21
27 11 5
27 12 17
27 13 20
27 14 31
27 15 4
27 16 11
27 17 27
27 18 46
27 19 14
27 20 16
27 21 16
27 22 29
27 23 44
27 24 47
27 25 12
27 26 9
28 0 25
28 1 14
28 2 39
28 3 13
28 4 18
28 5 7
28 6 3
28 7 2
28 8 16
28 9 15
28 10 36
28 11 39
28 12 19
28 13 14
28 14 25
28 15 25
28 16 8
28 17 17
28 18 19
28 19 8
28 20 9
28 21 43
28 22 7
28 23 24
28 24 44
28 25 26
28 26 27
28 27 48
29 0 8
29 1 42
29 2 30
29 3 47
29 4 19
29 5 9
29 6 36
29 7 28
29 8 12
29 9 7
29 10 26
29 11 1
29 12 7
29 13 34
29 14 33
29 15 32
29 16 44
29 17 2
29 18 4
29 19 21
29 20 33
29 21 41
29 22 24
29 23 10
29 24 39
29 25 37
29 26 33
29 27 32
29 28 38
30 0 10
30 1 18
30 2 32
30 3 18
30 4 33
30 5 43
30 6 34
30 7 1
30 8 10
30 9 41
30 10 29
30 11 35
30 12 1
30 13 42
30 14 24
30 15 44
30 16 32
30 17 19
30 18 38
30 19 23
30 20 5
30 21 47
30 22 40
30 23 41
30 24 17
30 25 50
30 26 20
30 27 5
30 28 37
30 29 28
31 0 1
31 1 22
31 2 12
31 3 45
31 4 45
31 5 8
31 6 34
31 7 23
31 8 4
31 9 26
31 10 22
31 11 4
31 12 2
31 13 46
31 14 2
31 15 9
31 16 30
31 17 38
31 18 40
31 19 10
31 20 12
31 21 46
31 22 25
31 23 47
31 24 3
31 25 45
31 26 23
31 27 9
31 28 30
31 29 2
31 30 42
32 0 37
32 1 3
32 2 12
32 3 43
32 4 11
32 5 43
32 6 15
32 7 9
32 8 39
32 9 43
32 10 27
32 11 41
32 12 29
32 13 2
32 14 19
32 15 17
32 16 8
32 17 38
32 18 23
32 19 50
32 20 28
32 21 18
32 22 38
32 23 8
32 24 49
32 25 43
32 26 16
32 27 20
32 28 22
32 29 24
32 30 23
32 31 41
33 0 28
33 1 37
33 2 20
33 3 22
33 4 31
33 5 4
33 6 38
33 7 4
33 8 11
33 9 20
33 10 24
33 11 40
33 12 28
33 13 46
33 14 5
33 15 34
33 16 49
33 17 9
33 18 4
33 19 49
33 20 5
33 21 8
33 22 9
33 23 24
33 24 3
33 25 47
33 26 37
33 27 37
33 28 23
33 29 6
33 30 17
33 31 40
33 32 7
34 0 7
34 1 12
34 2 2
34 3 34
34 4 13
34 5 42
34 6 33
34 7 22
34 8 19
34 9 34
34 10 47
34 11 35
34 12 37
34 13 37
34 14 1
34 15 32
34 16 27
34 17 23
34 18 3
34 19 45
34 20 7
34 21 20
34 22 48
34 23 25
34 24 32
34 25 20
34 26 50
34 27 19
34 28 37
34 29 40
34 30 50
34 31 19
34 32 13
34 33 19
